# AuPd nanoparticle, compressing
#1 general
#angstrom, eV, Kelvin, etc
units		metal
#sistema 3D
dimension	3
#las particulas son atomos
atom_style      atomic
#skin para lista de vecinos
neighbor        0.3 bin

#2 estructura
#condiciones periodicas de frontera
boundary	f f f 
#archivo de coordenadas iniciales
read_data	gaussian.dat
#masa de Au
mass        1 196.967
#masa de Pd
mass		2 106.42

#3 variables
# Variables que controlan extension de simulacion
#Time step
variable tstep equal 0.001
#numero de pasos para la rampa de temperatura
variable nramp equal 2000                # intenta 20000
#numero de pasos para equilibracion
variable nequil equal 1000               # intenta 10000
#numero de pasos para colectar estadistica
variable nstat equal 1000                # intenta 10000
#reporta informacion termodinamica 20 veces
variable ntherm equal v_nequil/20
#escribe en archivo dump 20 veces
variable ndump equal v_nstat/20
#numero de atomos
variable natoms equal "count(all)"
#temperatura muy baja para optimizar sistema
variable temp0 equal 1.0
#temperatura mas baja
variable temp1 equal 400
#temperatura mas alta
variable temp2 equal 1500
#numero de veces que se incrementara temperatura
variable n1 equal (v_temp2-v_temp1)/25



#strainrate1= la convercion de las unidades del strainrate
variable 	strainrate equal 1.0e9
variable 	strainrate1 equal "v_strainrate/1.0e12"

timestep 0.01

#4 potenciales
#potencial de embedded atom/Finnis-Sinclair para metales
pair_style    eam/fs
#archivo de coeficientes
pair_coeff    * * AuPd.fs Au Pd

#####

print "Compresion a distintas temperaturas"

#CICLO
label loopcompress
variable a loop ${n1}

#Nuevas variables en ciclo
variable newtemp1 equal (v_a-1)*(v_n1)+v_temp1
variable diam0 equal bound(all,xmax)-bound(all,xmin)
variable lx0 equal ${diam0}
variable xmaximo equal bound(all,xmax)
variable xminimo equal bound(all,xmin)

#Definimos regiones
region arriba v_xmaximo 60 -60 60 -60 60
group arriba region arriba
region abajo -60 v_xminimo -60 60 -60 60
group abajo region abajo

#Seteamos las velocidades con la nueva temperatura
velocity all create ${newtemp1} 12346 mom yes rot yes

#Indentador cada ciclo
fix compress all indent 10.0 plane x ${xmaximo} hi 

#rdf pendiente

#Recopila informacion (posiciones para la simulacion) peratom pendiente
dump compress all custom ${ndump} dump.${newtemp1} id type x y z fx fy fz

#Actualiza las variables termodinámicas cada 100 pasos
thermo 100
thermo_style custom step lx ly lz press pxx pyy pzz pe temp

#Lee el valor de strain y stress(solo fuerza)
variable strain equal "(lx-v_lx0)/v_lx0"
variable stressf equal "-(0.0001*pxx)*lz*ly" #1bar=10^5Pa=10^{-4}GPa

#Registra los valores de strain y stress
fix graphss all print 100 "${strain}   ${stressf}" file STRAINvsSTRESS.dat screen no


run 2000


#terminamos los procesos
unfix graphss
unfix compress
undump compress

#saltamos el valor de a al siguiente
next a
#nos regresamos a la etiqueta loopcompress
jump SELF loopcompress

print "Ya acabamos"













